clingo.log
clingo version 5.7.1
Reading from calendar.cl
Solving...
Answer: 1
start(pres,1) assign(1,fri,1,pres) assign(1,fri,2,pres) assign(9,sat,3,aupm) assign(9,sat,4,aupm) assign(2,fri,5,lm) assign(2,fri,6,lm) assign(1,sat,1,lm) assign(1,sat,2,lm) assign(1,sat,5,lm) assign(1,sat,6,lm) assign(9,fri,2,lm) assign(9,fri,1,lm) assign(9,fri,3,lm) assign(9,fri,4,lm) assign(2,fri,7,free) assign(2,fri,8,free) assign(2,sat,3,free) assign(2,sat,4,free) assign(3,fri,1,free) assign(3,fri,2,free) assign(3,fri,3,free) assign(3,fri,4,free) assign(3,fri,5,free) assign(3,fri,6,free) assign(3,fri,7,free) assign(3,fri,8,free) assign(3,sat,1,free) assign(3,sat,2,free) assign(3,sat,3,free) assign(3,sat,4,free) assign(3,sat,5,free) assign(3,sat,6,free) assign(4,fri,1,free) assign(4,fri,2,free) assign(4,fri,3,free) assign(4,fri,4,free) assign(4,fri,5,free) assign(4,fri,6,free) assign(4,fri,7,free) assign(4,fri,8,free) assign(4,sat,1,free) assign(4,sat,2,free) assign(4,sat,3,free) assign(4,sat,4,free) assign(4,sat,5,free) assign(4,sat,6,free) assign(5,fri,1,free) assign(5,fri,2,free) assign(5,fri,3,free) assign(5,fri,4,free) assign(5,fri,5,free) assign(5,fri,6,free) assign(5,fri,7,free) assign(5,fri,8,free) assign(5,sat,1,free) assign(5,sat,2,free) assign(5,sat,3,free) assign(5,sat,4,free) assign(5,sat,5,free) assign(5,sat,6,free) assign(6,fri,1,free) assign(6,fri,2,free) assign(6,fri,3,free) assign(6,fri,4,free) assign(6,fri,5,free) assign(6,fri,6,free) assign(6,fri,7,free) assign(6,fri,8,free) assign(6,sat,1,free) assign(6,sat,2,free) assign(6,sat,3,free) assign(6,sat,4,free) assign(6,sat,5,free) assign(6,sat,6,free) assign(8,fri,1,free) assign(8,fri,2,free) assign(8,fri,3,free) assign(8,fri,4,free) assign(8,fri,5,free) assign(8,fri,6,free) assign(8,fri,7,free) assign(8,fri,8,free) assign(8,sat,1,free) assign(8,sat,2,free) assign(8,sat,3,free) assign(8,sat,4,free) assign(8,sat,5,free) assign(8,sat,6,free) start(free,2) assign(9,fri,7,semu) assign(9,fri,8,semu) assign(11,sat,1,semu) assign(11,sat,2,semu) assign(11,sat,3,semu) assign(11,sat,4,semu) assign(12,fri,3,semu) assign(12,fri,4,semu) assign(13,fri,3,semu) assign(13,fri,4,semu) start(semu,9) assign(16,mon,5,cmasm) assign(16,mon,6,cmasm) assign(16,mon,7,cmasm) assign(16,mon,8,cmasm) assign(16,tue,1,cmasm) assign(16,tue,2,cmasm) assign(16,tue,5,cmasm) assign(16,tue,6,cmasm) assign(16,wed,1,cmasm) assign(16,wed,2,cmasm) assign(16,wed,3,cmasm) assign(16,wed,4,cmasm) assign(16,thu,1,cmasm) assign(16,thu,2,cmasm) assign(16,thu,5,cmasm) assign(16,thu,6,cmasm) assign(16,fri,1,cmasm) assign(16,fri,2,cmasm) assign(16,sat,1,cmasm) assign(16,sat,2,cmasm) start(cmasm,16) assign(11,sat,5,g3d) assign(11,sat,6,g3d) assign(12,fri,5,g3d) assign(12,fri,6,g3d) assign(12,fri,7,g3d) assign(12,fri,8,g3d) assign(12,sat,3,g3d) assign(12,sat,4,g3d) assign(12,sat,5,g3d) assign(12,sat,6,g3d) assign(13,sat,5,g3d) assign(13,sat,6,g3d) assign(14,fri,3,g3d) assign(14,fri,4,g3d) assign(14,fri,5,g3d) assign(14,fri,6,g3d) assign(14,sat,1,g3d) assign(14,sat,2,g3d) assign(15,fri,5,g3d) assign(15,fri,6,g3d) start(g3d,11) assign(1,fri,5,psawm1) assign(1,fri,6,psawm1) assign(2,fri,1,psawm1) assign(2,fri,2,psawm1) assign(2,fri,3,psawm1) assign(2,fri,4,psawm1) assign(2,sat,1,psawm1) assign(2,sat,2,psawm1) assign(2,sat,5,psawm1) assign(2,sat,6,psawm1) start(psawm1,1) assign(9,sat,5,psawm2) assign(9,sat,6,psawm2) assign(15,fri,1,psawm2) assign(15,fri,2,psawm2) assign(15,fri,3,psawm2) assign(15,fri,4,psawm2) assign(15,sat,1,psawm2) assign(15,sat,2,psawm2) assign(15,sat,5,psawm2) assign(15,sat,6,psawm2) start(psawm2,9) assign(12,fri,1,gru) assign(12,fri,2,gru) assign(14,fri,1,gru) assign(14,fri,2,gru) assign(14,fri,7,gru) assign(14,fri,8,gru) assign(14,sat,3,gru) assign(14,sat,4,gru) assign(14,sat,5,gru) assign(14,sat,6,gru) start(gru,12) assign(10,fri,1,vgp) assign(10,fri,2,vgp) assign(10,fri,3,vgp) assign(10,fri,4,vgp) assign(10,sat,1,vgp) assign(10,sat,2,vgp) assign(10,sat,5,vgp) assign(10,sat,6,vgp) assign(11,fri,3,vgp) assign(11,fri,4,vgp) start(vgp,10) end(pres,1) end(free,8) end(semu,13) end(cmasm,16) end(g3d,15) end(psawm1,2) end(psawm2,15) end(gru,14) end(vgp,11) assign(1,fri,7,fictpp) assign(1,fri,8,fictpp) assign(7,thu,5,pbd) assign(7,thu,6,pbd) assign(7,fri,1,md) assign(7,fri,2,md) assign(7,fri,7,md) assign(9,fri,5,md) assign(9,fri,6,md) assign(10,fri,5,md) assign(10,fri,6,md) assign(10,fri,7,md) assign(11,fri,1,md) assign(11,fri,2,md) assign(11,fri,5,md) assign(11,fri,6,md) assign(13,fri,5,md) assign(13,fri,6,md) assign(13,fri,7,md) assign(15,fri,7,md) assign(1,sat,3,md) assign(1,sat,4,md) assign(9,sat,1,md) assign(9,sat,2,md) assign(12,sat,1,md) assign(12,sat,2,md) assign(7,fri,8,md) assign(10,fri,8,md) assign(13,fri,8,md) assign(15,fri,8,md) assign(16,fri,5,md) assign(16,fri,6,md) hoursCount(pres,2) hoursCount(free,74) hoursCount(fictpp,2) hoursCount(lm,10) hoursCount(pbd,2) assign(7,fri,5,aupm) assign(7,fri,6,aupm) hoursCount(aupm,4) hoursCount(md,28) assign(7,wed,3,tsmd) assign(7,wed,4,tsmd) hoursCount(tsmd,2) assign(7,thu,1,ismm) assign(7,thu,2,ismm) hoursCount(ismm,2) assign(7,mon,5,aes) assign(7,mon,6,aes) assign(7,mon,7,aes) assign(7,mon,8,aes) assign(7,tue,5,aes) assign(7,tue,6,aes) assign(7,tue,7,aes) assign(7,tue,8,aes) assign(16,wed,7,aes) assign(16,wed,8,aes) assign(7,thu,3,aes) assign(7,thu,4,aes) assign(7,thu,7,aes) assign(7,thu,8,aes) assign(16,thu,7,aes) assign(16,thu,8,aes) assign(7,sat,5,aes) assign(7,sat,6,aes) hoursCount(aes,18) assign(16,mon,1,aesid) assign(16,mon,2,aesid) assign(7,wed,5,aesid) assign(7,wed,6,aesid) assign(16,wed,5,aesid) assign(16,wed,6,aesid) assign(16,thu,3,aesid) assign(16,thu,4,aesid) hoursCount(aesid,8) assign(7,mon,1,cpcp) assign(7,mon,2,cpcp) assign(7,mon,3,cpcp) assign(7,mon,4,cpcp) assign(16,mon,3,cpcp) assign(16,mon,4,cpcp) assign(7,tue,1,cpcp) assign(7,tue,2,cpcp) assign(7,tue,3,cpcp) assign(7,tue,4,cpcp) assign(16,tue,3,cpcp) assign(16,tue,4,cpcp) assign(16,tue,7,cpcp) assign(16,tue,8,cpcp) assign(7,wed,1,cpcp) assign(7,wed,2,cpcp) assign(7,wed,7,cpcp) assign(7,wed,8,cpcp) assign(1,fri,3,cpcp) assign(1,fri,4,cpcp) assign(7,fri,3,cpcp) assign(7,fri,4,cpcp) assign(11,fri,7,cpcp) assign(11,fri,8,cpcp) assign(13,fri,1,cpcp) assign(13,fri,2,cpcp) assign(16,fri,3,cpcp) assign(16,fri,4,cpcp) assign(16,fri,7,cpcp) assign(16,fri,8,cpcp) assign(7,sat,1,cpcp) assign(7,sat,2,cpcp) assign(7,sat,3,cpcp) assign(7,sat,4,cpcp) assign(10,sat,3,cpcp) assign(10,sat,4,cpcp) assign(13,sat,1,cpcp) assign(13,sat,2,cpcp) assign(13,sat,3,cpcp) assign(13,sat,4,cpcp) assign(15,sat,3,cpcp) assign(15,sat,4,cpcp) assign(16,sat,3,cpcp) assign(16,sat,4,cpcp) assign(16,sat,5,cpcp) assign(16,sat,6,cpcp) hoursCount(cpcp,46) hoursCount(semu,10) hoursCount(cmasm,20) hoursCount(g3d,20) hoursCount(psawm1,10) hoursCount(psawm2,10) hoursCount(gru,10) hoursCount(vgp,10)
SATISFIABLE

Models       : 1+
Calls        : 1
Time         : 31.622s (Solving: 0.60s 1st Model: 0.58s Unsat: 0.00s)
CPU Time     : 35.286s
Threads      : 8        (Winner: 1)
